CPXPARAM_Read_DataCheck                          1
Found incumbent of value 0.000000 after 0.00 sec. (0.03 ticks)
Tried aggregator 1 time.
MIP Presolve modified 1 coefficients.
Reduced MIP has 217 rows, 1005 columns, and 5017 nonzeros.
Reduced MIP has 1005 binaries, 0 generals, 0 SOSs, and 0 indicators.
Presolve time = 0.00 sec. (2.15 ticks)
Probing time = 0.00 sec. (2.57 ticks)
Tried aggregator 1 time.
Reduced MIP has 217 rows, 1005 columns, and 5017 nonzeros.
Reduced MIP has 1005 binaries, 0 generals, 0 SOSs, and 0 indicators.
Presolve time = 0.00 sec. (2.54 ticks)
Probing time = 0.00 sec. (2.61 ticks)
Clique table members: 3264.
MIP emphasis: balance optimality and feasibility.
MIP search method: dynamic search.
Parallel mode: deterministic, using up to 4 threads.
Root relaxation solution time = 0.00 sec. (4.13 ticks)

        Nodes                                         Cuts/
   Node  Left     Objective  IInf  Best Integer    Best Bound    ItCnt     Gap

*     0+    0                            0.0000     6364.0000              --- 
*     0+    0                          950.0000     6364.0000           569.89%
      0     0     2070.7000     5      950.0000     2070.7000      316  117.97%
      0     0     1723.5054    46      950.0000     Cuts: 154      449   81.42%
      0     0     1563.1531   126      950.0000     Cuts: 154      626   64.54%
      0     0     1491.3212   238      950.0000     Cuts: 154      878   56.98%
*     0+    0                         1243.0000     1491.3212            19.98%
      0     0        cutoff           1243.0000     1243.0000     1084    0.00%
Elapsed time = 0.22 sec. (113.59 ticks, tree = 0.01 MB, solutions = 3)

Clique cuts applied:  249
Cover cuts applied:  4
Implied bound cuts applied:  4
Mixed integer rounding cuts applied:  38
Zero-half cuts applied:  10

Root node processing (before b&c):
  Real time             =    0.22 sec. (113.67 ticks)
Parallel b&c, 4 threads:
  Real time             =    0.00 sec. (0.00 ticks)
  Sync time (average)   =    0.00 sec.
  Wait time (average)   =    0.00 sec.
                          ------------
Total (root+branch&cut) =    0.22 sec. (113.67 ticks)
